
List of user-set options:

                                    Name   Value                used
                         derivative_test = first-order           yes
                        file_print_level = 5                     yes
                   hessian_approximation = limited-memory        yes
                                  hsllib = /home/ggs24/packages/ThirdParty-HSL/.libs/libcoinhsl.so  yes
                           linear_solver = ma97                  yes
                                max_iter = 500                   yes
                             output_file = IPOPT.out             yes
                             print_level = 0                     yes
                      print_user_options = yes                   yes
                                      sb = yes                   yes
This is Ipopt version 3.14.7, running with linear solver ma97.

Starting derivative checker for first derivatives.

* jac_g [   33,    2] = -1.4854825489614027e-04 v  ~ -1.4853151127221795e-04  [ 1.127e-04]
* jac_g [   20,    9] =  4.5168116540756731e-04 v  ~  4.5172754425948369e-04  [ 1.027e-04]
* jac_g [  247,    9] =  5.3787757073264764e-04 v  ~  5.3793636212162710e-04  [ 1.093e-04]
* jac_g [   64,   10] =  8.9290379679906226e-16 v  ~ -1.1102230246251565e-08  [ 1.110e-04]
* jac_g [  175,   14] =  1.1102230246251566e-17 v  ~ -1.6346491363141958e-08  [ 1.635e-04]

Derivative checker detected 5 error(s).

Number of nonzeros in equality constraint Jacobian...:       60
Number of nonzeros in inequality constraint Jacobian.:     3660
Number of nonzeros in Lagrangian Hessian.............:        0

Total number of variables............................:       15
                     variables with only lower bounds:        1
                variables with lower and upper bounds:        0
                     variables with only upper bounds:        0
Total number of equality constraints.................:        4
Total number of inequality constraints...............:      244
        inequality constraints with only lower bounds:        0
   inequality constraints with lower and upper bounds:      183
        inequality constraints with only upper bounds:       61

iter    objective    inf_pr   inf_du lg(mu)  ||d||  lg(rg) alpha_du alpha_pr  ls
   0  1.0000000e+01 1.00e+00 1.12e+00   0.0 0.00e+00    -  0.00e+00 0.00e+00   0
   1  1.0456966e+01 8.82e-01 1.04e+01  -0.7 3.88e+00    -  7.22e-01 1.18e-01f  1
   2  1.3456616e+01 4.39e-02 3.03e+01  -1.9 3.04e+00    -  2.89e-01 9.88e-01h  1
   3  1.4143990e+01 8.88e-16 1.05e+01  -1.8 6.87e-01    -  5.50e-01 1.00e+00h  1
   4  1.3883839e+01 8.88e-16 4.48e+00  -3.0 2.60e-01    -  6.29e-01 1.00e+00h  1
   5  1.3549240e+01 8.88e-16 1.89e+00  -2.0 4.58e-01    -  6.74e-01 1.00e+00f  1
   6  1.3381431e+01 0.00e+00 1.34e-01  -2.5 4.31e-01    -  9.55e-01 1.00e+00h  1
   7  1.3306711e+01 4.44e-16 2.58e-01  -2.4 2.73e-01    -  7.84e-01 1.00e+00h  1
   8  1.3267555e+01 4.44e-16 1.34e-02  -2.9 1.43e-01    -  9.98e-01 1.00e+00h  1
   9  1.3222076e+01 0.00e+00 2.20e-02  -3.3 3.78e-01    -  9.74e-01 9.92e-01h  1
iter    objective    inf_pr   inf_du lg(mu)  ||d||  lg(rg) alpha_du alpha_pr  ls
  10  1.3212449e+01 1.86e-03 3.93e-01  -3.8 3.87e-01    -  1.00e+00 6.71e-01h  1
  11  1.3211495e+01 7.46e-04 4.62e-01  -4.4 6.79e-02    -  1.00e+00 5.75e-01h  1
  12  1.3211773e+01 0.00e+00 3.76e-04  -4.7 2.74e-02    -  1.00e+00 1.00e+00h  1
  13  1.3211592e+01 7.97e-07 1.60e-03  -5.4 1.08e-02    -  9.92e-01 1.00e+00h  1
  14  1.3211571e+01 8.88e-16 6.06e-05  -6.1 6.07e-03    -  1.00e+00 1.00e+00h  1
  15  1.3211564e+01 8.44e-08 6.07e-05  -7.4 2.08e-03    -  1.00e+00 1.00e+00h  1
  16  1.3211564e+01 1.11e-08 2.36e-06  -8.9 6.06e-04    -  1.00e+00 1.00e+00h  1
  17  1.3211564e+01 4.61e-10 1.02e-06 -11.0 1.16e-04    -  1.00e+00 1.00e+00h  1
  18  1.3211564e+01 1.78e-15 4.23e-07 -11.0 9.33e-06    -  1.00e+00 1.00e+00h  1
  19  1.3211564e+01 8.88e-16 2.60e-07 -11.0 1.46e-05    -  1.00e+00 1.00e+00h  1
iter    objective    inf_pr   inf_du lg(mu)  ||d||  lg(rg) alpha_du alpha_pr  ls
  20  1.3211564e+01 8.88e-16 3.65e-10 -11.0 9.36e-06    -  1.00e+00 1.00e+00h  1

Number of Iterations....: 20

                                   (scaled)                 (unscaled)
Objective...............:   1.3211563507943918e+01    1.3211563507943918e+01
Dual infeasibility......:   3.6478252363192354e-10    3.6478252363192354e-10
Constraint violation....:   8.8817841970012523e-16    8.8817841970012523e-16
Variable bound violation:   0.0000000000000000e+00    0.0000000000000000e+00
Complementarity.........:   1.0000040338181130e-11    1.0000040338181130e-11
Overall NLP error.......:   3.6478252363192354e-10    3.6478252363192354e-10


Number of objective function evaluations             = 21
Number of objective gradient evaluations             = 21
Number of equality constraint evaluations            = 21
Number of inequality constraint evaluations          = 21
Number of equality constraint Jacobian evaluations   = 21
Number of inequality constraint Jacobian evaluations = 21
Number of Lagrangian Hessian evaluations             = 0
Total seconds in IPOPT                               = 0.897

EXIT: Optimal Solution Found.
